NAME: ../File/prFile/tspFile/tsp_file16.tsp
COMMENT: TSP file generated by Python
TYPE: TSP
DIMENSION: 30
EDGE_WEIGHT_TYPE: EUC_2D
NODE_COORD_SECTION
1 99 15
2 22 19
3 18 95
4 55 81
5 91 93
6 74 79
7 96 85
8 37 82
9 67 43
10 20 27
11 91 83
12 16 95
13 12 38
14 82 38
15 26 97
16 5 42
17 88 90
18 6 97
19 54 67
20 87 76
21 95 14
22 50 51
23 62 88
24 5 77
25 98 94
26 52 19
27 79 40
28 95 36
29 59 31
30 66 66
EOF
